8466 3530
4609 4508
9074 1153
8011 2446
9255 3098
4368 2447
6194 5349
8979 8927
5710 6139
3855 1166
9611 5088
2663 8538
9038 2035
7235 187
2908 4653
4460 2624
3389 8233
6227 3326
1248 2207
9106 5214
3778 280
8609 9097
8441 5513
6755 7060
5184 6925
4247 6903
8843 8440
2176 5112
3904 303
9902 1938
7173 7386
7142 4076
9837 6131
6876 854
8499 3223
4901 4504
5156 6817
7983 8774
4826 6643
6241 3110
4931 9069
2052 6204
5790 8522
2824 6644
2425 3933
3097 515
8916 6150
7858 3553
8772 672
6449 6726
